(set-info :smt-lib-version 2.6)
(set-logic QF_UFLRA)
(set-info :source |
MathSat group

|)
(set-info :category "random")
(set-info :status unsat)
(declare-fun x0 () Real)
(declare-fun x1 () Real)
(declare-fun x2 () Real)
(declare-fun x3 () Real)
(declare-fun x4 () Real)
(declare-fun x5 () Real)
(declare-fun x6 () Real)
(declare-fun x7 () Real)
(declare-fun x8 () Real)
(declare-fun x9 () Real)
(declare-fun x10 () Real)
(declare-fun x11 () Real)
(declare-fun x12 () Real)
(declare-fun x13 () Real)
(declare-fun x14 () Real)
(declare-fun x15 () Real)
(declare-fun x16 () Real)
(declare-fun x17 () Real)
(declare-fun x18 () Real)
(declare-fun x19 () Real)
(declare-fun x20 () Real)
(declare-fun x21 () Real)
(declare-fun x22 () Real)
(declare-fun x23 () Real)
(declare-fun x24 () Real)
(declare-fun x25 () Real)
(declare-fun x26 () Real)
(declare-fun x27 () Real)
(declare-fun x28 () Real)
(declare-fun x29 () Real)
(declare-fun f0_1 (Real) Real)
(declare-fun f0_2 (Real Real) Real)
(declare-fun f0_3 (Real Real Real) Real)
(declare-fun f0_4 (Real Real Real Real) Real)
(declare-fun P0 () Bool)
(declare-fun P1 () Bool)
(declare-fun P2 () Bool)
(declare-fun P3 () Bool)
(declare-fun P4 () Bool)
(declare-fun P5 () Bool)
(declare-fun P6 () Bool)
(declare-fun P7 () Bool)
(declare-fun P8 () Bool)
(declare-fun P9 () Bool)
(declare-fun P10 () Bool)
(declare-fun P11 () Bool)
(declare-fun P12 () Bool)
(declare-fun P13 () Bool)
(declare-fun P14 () Bool)
(declare-fun P15 () Bool)
(declare-fun P16 () Bool)
(declare-fun P17 () Bool)
(declare-fun P18 () Bool)
(declare-fun P19 () Bool)
(declare-fun P20 () Bool)
(declare-fun P21 () Bool)
(declare-fun P22 () Bool)
(declare-fun P23 () Bool)
(declare-fun P24 () Bool)
(declare-fun P25 () Bool)
(declare-fun P26 () Bool)
(declare-fun P27 () Bool)
(declare-fun P28 () Bool)
(declare-fun P29 () Bool)
(assert (let ((?v_62 (distinct (- (- (* 17 x22) (* 17 x25)) (* 15 x10)) 44)) (?v_61 (< (- (- (* 26 x2) (* 14 x20)) (* 22 x23)) 34)) (?v_51 (<= (- (+ (* 29 x24) (* 17 x12)) (* 5 x27)) 9)) (?v_76 (distinct x26 (f0_2 x25 x5))) (?v_50 (distinct (f0_1 x11) (f0_2 x0 x24))) (?v_3 (distinct (f0_1 x7) (f0_2 x10 x2))) (?v_14 (f0_1 x0))) (let ((?v_7 (= ?v_14 x6)) (?v_104 (= x2 (f0_2 x24 x7))) (?v_127 (distinct x4 (f0_2 x6 x9))) (?v_15 (= (f0_1 x20) x22)) (?v_6 (= (f0_1 x13) (f0_2 x16 x7))) (?v_95 (distinct (f0_2 x18 x10) x20)) (?v_88 (distinct x9 (f0_1 x5))) (?v_96 (= (f0_1 x3) x21)) (?v_37 (distinct (f0_2 x16 x22) (f0_1 x21))) (?v_121 (distinct (f0_2 x27 x4) (f0_1 x15))) (?v_0 (f0_1 x4))) (let ((?v_120 (distinct (f0_2 x24 x22) ?v_0)) (?v_81 (distinct x0 x17)) (?v_84 (distinct x29 (f0_2 x17 x8))) (?v_27 (distinct x28 (f0_1 x1))) (?v_22 (= x28 x14)) (?v_9 (f0_1 x17))) (let ((?v_8 (= ?v_9 x17)) (?v_91 (= (f0_1 x9) x26)) (?v_13 (distinct x21 (f0_2 x0 x28))) (?v_80 (= (f0_2 x14 x18) x28)) (?v_83 (= x12 x14)) (?v_40 (= (f0_2 x4 x8) ?v_9)) (?v_38 (= (f0_2 x10 x0) x29)) (?v_23 (distinct (f0_2 x3 x29) ?v_14)) (?v_11 (distinct ?v_0 (f0_2 x27 x27))) (?v_98 (distinct (f0_2 x6 x8) (f0_2 x22 x26))) (?v_31 (distinct (f0_2 x22 x4) x10)) (?v_78 (distinct (f0_1 x28) (f0_2 x5 x12)))) (let ((?v_113 (not ?v_8)) (?v_21 (not ?v_120)) (?v_119 (not ?v_3)) (?v_47 (not P17)) (?v_114 (not ?v_37)) (?v_108 (not P16)) (?v_64 (not P22)) (?v_74 (not ?v_104)) (?v_28 (not ?v_7)) (?v_72 (not P9)) (?v_10 (not P29)) (?v_152 (not ?v_81)) (?v_139 (not P19)) (?v_12 (not ?v_40)) (?v_102 (not P21)) (?v_60 (not ?v_27)) (?v_18 (not ?v_95)) (?v_16 (not ?v_127)) (?v_63 (not ?v_31)) (?v_39 (not P23)) (?v_140 (not P26)) (?v_77 (not P15)) (?v_43 (not P7)) (?v_59 (not ?v_13)) (?v_35 (not ?v_23)) (?v_29 (not P11)) (?v_92 (not P24)) (?v_126 (not P13)) (?v_86 (not P6)) (?v_131 (not P27)) (?v_69 (not P4)) (?v_129 (not ?v_88)) (?v_111 (not ?v_76)) (?v_66 (not ?v_78)) (?v_46 (not P1)) (?v_57 (not ?v_84)) (?v_68 (not ?v_80)) (?v_115 (not ?v_11)) (?v_109 (not ?v_51)) (?v_85 (not ?v_61)) (?v_67 (not ?v_62)) (?v_110 (not ?v_38)) (?v_65 (not P28)) (?v_122 (not ?v_15)) (?v_79 (not P10)) (?v_130 (not ?v_6)) (?v_107 (not P14)) (?v_118 (not ?v_83)) (?v_93 (not ?v_50)) (?v_134 (not ?v_91)) (?v_99 (not ?v_98)) (?v_135 (not P5)) (?v_132 (not P8)) (?v_150 (not ?v_96)) (?v_133 (not P18)) (?v_145 (not P2)) (?v_141 (not P25)) (?v_146 (not ?v_121)) (?v_138 (not P12)) (?v_144 (not P3)) (?v_142 (not P20)) (?v_151 (not ?v_22)) (?v_4 (< (+ (* 8 x3) (* 41 x11) (* 5 x22)) 10))) (let ((?v_24 (not ?v_4)) (?v_73 (<= (+ (* 10 x24) (* 39 x8) (* 14 x7)) 31))) (let ((?v_54 (not ?v_73)) (?v_90 (< (+ x2 (* 22 x16) (* 42 x22)) 7)) (?v_153 (or ?v_40 ?v_24))) (let ((?v_147 (not ?v_90)) (?v_1 (< (- (+ (* 35 x11) (* 10 x11)) (* 29 x9)) (- 12)))) (let ((?v_36 (not ?v_1)) (?v_56 (<= (+ (- (* (- 37) x21) (* 30 x28)) (* 22 x28)) 5))) (let ((?v_136 (not ?v_56)) (?v_53 (< (- (- (* (- 31) x7) (* 19 x9)) (* 13 x26)) 31))) (let ((?v_2 (not ?v_53)) (?v_70 (<= (- (+ (* (- 8) x10) (* 22 x18)) (* 42 x15)) 17))) (let ((?v_5 (not ?v_70)) (?v_48 (< (- (- (* (- 10) x16) (* 21 x27)) 0) 15)) (?v_44 (distinct (- (- (* 24 x27) (* 11 x9)) (* 7 x21)) (- 14)))) (let ((?v_19 (not ?v_44)) (?v_101 (<= (+ (- 0 (* 16 x10)) (* 3 x18)) (- 27)))) (let ((?v_20 (not ?v_101)) (?v_42 (<= (- (+ (* (- 7) x16) (* 9 x12)) (* 22 x25)) (- 40)))) (let ((?v_117 (not ?v_42)) (?v_71 (<= (+ (* (- 34) x12) (* 28 x29) (* 37 x9)) (- 34)))) (let ((?v_26 (not ?v_71)) (?v_41 (distinct (+ (* (- 32) x8) (* 31 x29) (* 33 x15)) 3)) (?v_17 (<= (+ (* (- 8) x13) (* 32 x19) (* 8 x24)) 33))) (let ((?v_112 (not ?v_17)) (?v_32 (<= (- (- (* (- 19) x12) (* 10 x22)) (* 34 x19)) 4))) (let ((?v_55 (not ?v_32)) (?v_25 (= (- (* 17 x24) (* 6 x23)) (- 36)))) (let ((?v_30 (not ?v_25)) (?v_128 (< (* (- 1) x27) 16))) (let ((?v_49 (not ?v_128)) (?v_34 (= (- (- (* (- 20) x26) (* 6 x10)) 0) 34)) (?v_124 (<= (- (+ (* 19 x8) (* 22 x1)) (* 3 x13)) (- 16)))) (let ((?v_33 (not ?v_124)) (?v_45 (< (- (+ (* 27 x9) (* 13 x10)) (* 6 x26)) (- 38))) (?v_97 (< (- (+ (* (- 37) x25) (* 26 x4)) 0) (- 38)))) (let ((?v_137 (not ?v_97)) (?v_58 (distinct (- (+ (* (- 36) x15) (* 20 x21)) (* 25 x16)) (- 21)))) (let ((?v_52 (not ?v_58)) (?v_75 (distinct (+ (* 11 x28) (* 37 x20) (* 27 x17)) (- 34))) (?v_82 (< (+ (- (* 40 x0) (* 3 x14)) (* 9 x15)) (- 29))) (?v_94 (< (+ (* (- 2) x2) (* 11 x15) (* 41 x20)) (- 32))) (?v_123 (not ?v_34)) (?v_87 (not ?v_45)) (?v_148 (or ?v_20 ?v_7))) (let ((?v_106 (not ?v_75)) (?v_116 (not ?v_82)) (?v_89 (= (- (- (* 11 x7) x29) (* 31 x1)) (- 33))) (?v_125 (not ?v_48)) (?v_100 (<= (+ (- (* (- 9) x26) 0) (* 6 x12)) (- 44)))) (let ((?v_103 (not ?v_89)) (?v_105 (not ?v_94)) (?v_143 (not ?v_41)) (?v_149 (not ?v_100))) (and (and (and (and (and (and (and (and (and (and (and (and (and (and (and (and (and (and (and (and (and (and (and (and (and (and (and (and (and (and (and (and (and (and (and (and (and (and (and (and (and (and (and (and (and (and (and (and (and (and (and (and (and (and (and (and (and (and (and (and (and (and (and (and (and (and (and (and (and (and (and (and (and (and (and (and (and (and (and (and (and (and (and (and (and (and (and (and (and (and (and (and (and (and (and (and (and (and (and (and (and (and (and (and (and (and (and (and (and (and (and (and (and (and (and (and (and (and (and (and (and (and (and (and (and (and (and (and (and (and (and (and (and (and (and (and (and (and (and (and (and (and (and (and (and (and (and (and (and (and (and (and (and (and (and (and (and (and (and (and (and (and (and (and (and (and (and (and (and (and (and (and (and (and (and (and (and (and (and (and (and (and (and (and (and (and (and (and (and (and (and (and (and (and (and (and (and (and (and (and (and (and (and (and (and (and (and (and (and (and (and (and (and (and (and (and (and (and (and (and (and (and (and (and (and (and (and (and (and (and (and (and (and (and (and (and (and (and (and (and (and (and (and (and (and (and (and (and (and (and (and (and (and (and (and (and (and (and (and (and (and (and (and (and (and (and (and (and (and (and (and (and (and (and (and (and (and (and (and (and (and (and (and (and (and (and (and (and (and (and (and (and (and (and (and (and (and (and (and (and (and (and (and (and (and (and (and (and (and (and (and (and (and (and (and (and (and (and (and (and (and (and (and (and (and (and (and (and (and (and (and (and (and (and (and (and (and (and (and (and (and (and (and (and (and (and (and (and (and (and (and (and (and (and (and (and (and (and (and (and (and (and (and (and (and (and (and (and (and (and (and (and (and (and (and (and (and (and (and (and (and (and (and (and (and (and (and (and (and (and (and (and (and (and (and (and (and (and (and (and (and (and (and (and (and (and (and (and (and (and (and (and (and (and (and (and (and (and (and (and (and (and (and (and (and (and (and (and (and (and (and (and (and (and (and (and (and (and (and (and (and (and (and (and (and (and (and (and (and (or (or ?v_1 ?v_113) ?v_11) (or (or ?v_21 ?v_36) ?v_119)) (or (or ?v_7 ?v_136) ?v_4)) (or (or ?v_2 ?v_47) ?v_114)) (or (or ?v_2 ?v_1) P20)) (or (or P19 ?v_5) P7)) (or (or ?v_6 ?v_3) ?v_24)) (or (or P6 ?v_5) ?v_108)) (or (or ?v_48 P5) P2)) (or (or ?v_64 ?v_6) ?v_74)) (or (or ?v_28 ?v_72) P3)) (or (or P28 P8) ?v_19)) (or (or ?v_8 P12) ?v_10)) (or (or ?v_152 ?v_20) P12)) (or (or ?v_117 ?v_139) ?v_54)) (or (or ?v_12 ?v_26) ?v_13)) (or (or ?v_10 ?v_102) ?v_60)) (or (or ?v_18 ?v_8) ?v_16)) (or (or ?v_15 ?v_22) ?v_63)) (or (or ?v_39 ?v_11) ?v_12)) (or (or ?v_13 ?v_140) ?v_41)) (or (or ?v_77 ?v_23) ?v_15)) (or (or ?v_43 ?v_90) ?v_16)) (or (or P26 ?v_112) ?v_8)) (or (or ?v_17 ?v_59) ?v_18)) (or (or P22 ?v_55) ?v_19)) (or (or ?v_20 ?v_11) ?v_21)) (or (or ?v_22 ?v_35) ?v_30)) (or (or ?v_24 ?v_38) P10)) (or (or P3 ?v_96) ?v_29)) (or (or ?v_25 ?v_92) ?v_49)) (or (or P15 ?v_126) ?v_34)) (or (or P14 ?v_26) ?v_3)) (or (or ?v_86 ?v_50) ?v_131)) (or (or ?v_33 ?v_27) ?v_28)) (or (or ?v_29 ?v_30) ?v_45)) (or (or P13 ?v_13) ?v_16)) (or (or ?v_137 ?v_31) ?v_51)) (or (or P9 P27) ?v_83)) (or (or ?v_15 P16) ?v_69)) (or (or ?v_32 ?v_1) P12)) (or (or ?v_129 ?v_16) ?v_33)) (or (or ?v_34 P2) ?v_27)) (or (or ?v_35 ?v_31) P29)) (or (or P13 ?v_36) ?v_111)) (or (or P2 ?v_37) P1)) (or (or P8 ?v_38) ?v_66)) (or (or ?v_39 P2) ?v_52)) (or ?v_153 ?v_46)) (or (or P12 ?v_75) ?v_82)) (or (or P19 ?v_94) ?v_41)) (or (or ?v_42 ?v_43) ?v_44)) (or (or ?v_57 ?v_45) P2)) (or (or P22 ?v_61) P19)) (or (or ?v_8 ?v_46) ?v_42)) (or (or ?v_68 P5) ?v_62)) (or (or ?v_115 ?v_47) ?v_29)) (or (or ?v_48 ?v_49) P11)) (or (or ?v_50 ?v_109) ?v_52)) (or (or ?v_53 P21) ?v_54)) (or (or ?v_23 P18) ?v_55)) (or (or P6 P3) ?v_56)) (or (or ?v_57 ?v_58) ?v_59)) (or (or P13 P20) P16)) (or (or ?v_39 ?v_60) ?v_43)) (or (or ?v_85 ?v_21) ?v_67)) (or (or ?v_123 ?v_30) ?v_35)) (or (or ?v_61 ?v_11) ?v_110)) (or (or ?v_65 ?v_122) ?v_54)) (or (or ?v_79 ?v_3) ?v_28)) (or (or ?v_87 ?v_45) ?v_63)) (or (or ?v_64 ?v_130) ?v_30)) (or ?v_148 P27)) (or (or ?v_22 ?v_65) ?v_66)) (or (or ?v_6 ?v_49) ?v_67)) (or (or ?v_25 ?v_68) P10)) (or (or ?v_55 ?v_58) ?v_36)) (or (or P29 P5) P2)) (or (or ?v_69 ?v_70) ?v_71)) (or (or ?v_20 ?v_91) ?v_29)) (or (or ?v_71 ?v_72) ?v_73)) (or (or ?v_74 ?v_12) P1)) (or (or ?v_98 ?v_75) P18)) (or (or ?v_106 ?v_76) ?v_77)) (or (or ?v_47 ?v_78) P21)) (or (or ?v_55 ?v_24) ?v_76)) (or (or ?v_60 ?v_79) P16)) (or (or P6 ?v_6) ?v_80)) (or (or ?v_3 ?v_75) ?v_39)) (or (or ?v_63 ?v_22) ?v_81)) (or (or ?v_116 ?v_107) P11)) (or (or ?v_59 P11) ?v_7)) (or (or ?v_43 P14) ?v_50)) (or (or ?v_82 ?v_61) ?v_60)) (or (or ?v_89 ?v_118) ?v_54)) (or (or ?v_84 ?v_121) P18)) (or (or ?v_85 ?v_73) ?v_71)) (or (or ?v_53 ?v_86) P12)) (or (or ?v_93 ?v_8) ?v_68)) (or (or ?v_29 ?v_85) ?v_125)) (or (or ?v_40 ?v_31) ?v_87)) (or (or ?v_18 P3) ?v_26)) (or (or ?v_87 ?v_83) ?v_88)) (or (or ?v_67 P14) ?v_46)) (or (or ?v_79 ?v_100) ?v_23)) (or (or ?v_89 ?v_80) ?v_90)) (or (or P6 P15) ?v_134)) (or (or P26 ?v_103) ?v_64)) (or (or ?v_13 P28) ?v_44)) (or (or ?v_53 ?v_92) ?v_4)) (or (or ?v_53 ?v_93) ?v_62)) (or (or ?v_34 ?v_68) ?v_51)) (or (or P29 ?v_27) P21)) (or (or P0 ?v_46) ?v_83)) (or (or ?v_105 ?v_63) P27)) (or (or ?v_48 ?v_95) ?v_88)) (or (or ?v_71 ?v_96) ?v_38)) (or (or ?v_97 ?v_99) P18)) (or (or ?v_47 ?v_90) ?v_99)) (or (or ?v_73 ?v_8) ?v_66)) (or (or ?v_55 P12) ?v_100)) (or (or ?v_101 ?v_36) ?v_102)) (or (or ?v_81 ?v_103) ?v_32)) (or (or ?v_89 P3) ?v_55)) (or (or ?v_8 ?v_60) P18)) (or (or ?v_37 ?v_8) ?v_65)) (or (or ?v_104 ?v_105) ?v_91)) (or (or ?v_15 ?v_106) ?v_61)) (or (or ?v_63 ?v_85) P11)) (or (or ?v_107 ?v_73) ?v_22)) (or (or ?v_29 ?v_108) ?v_70)) (or (or ?v_8 ?v_105) ?v_45)) (or (or ?v_60 ?v_29) P7)) (or (or ?v_48 ?v_41) ?v_109)) (or (or ?v_8 ?v_24) P3)) (or (or ?v_98 ?v_24) ?v_84)) (or (or ?v_50 ?v_99) P22)) (or (or ?v_37 ?v_50) ?v_110)) (or (or ?v_72 ?v_111) ?v_112)) (or (or P29 P2) ?v_54)) (or (or ?v_113 ?v_114) ?v_41)) (or (or ?v_51 ?v_55) ?v_1)) (or (or ?v_114 ?v_23) ?v_40)) (or (or P9 ?v_105) ?v_68)) (or (or ?v_106 P28) ?v_115)) (or (or ?v_109 ?v_20) ?v_43)) (or (or ?v_7 ?v_64) ?v_102)) (or (or ?v_8 ?v_7) P29)) (or (or P0 ?v_21) ?v_113)) (or (or ?v_116 P26) ?v_81)) (or (or ?v_117 ?v_92) ?v_116)) (or (or ?v_99 ?v_59) ?v_75)) (or (or ?v_13 ?v_32) ?v_94)) (or (or ?v_59 ?v_118) ?v_4)) (or (or ?v_113 P20) ?v_106)) (or (or ?v_119 P3) ?v_120)) (or (or ?v_30 ?v_119) ?v_135)) (or (or ?v_111 P20) ?v_5)) (or (or ?v_50 ?v_121) ?v_23)) (or (or ?v_70 ?v_122) ?v_28)) (or (or ?v_103 ?v_102) ?v_119)) (or (or ?v_50 ?v_78) ?v_109)) (or (or ?v_117 ?v_91) ?v_52)) (or (or ?v_78 ?v_32) ?v_17)) (or (or ?v_67 ?v_122) ?v_132)) (or (or ?v_71 ?v_11) ?v_89)) (or (or ?v_4 ?v_93) ?v_53)) (or (or ?v_95 ?v_54) ?v_147)) (or (or P12 P10) ?v_38)) (or (or ?v_38 ?v_150) ?v_93)) (or (or ?v_27 ?v_92) ?v_12)) (or (or ?v_54 ?v_102) P16)) (or (or ?v_60 ?v_123) P15)) (or (or P29 P27) ?v_36)) (or (or ?v_3 ?v_13) ?v_103)) (or (or ?v_123 P14) ?v_63)) (or (or ?v_121 ?v_29) ?v_47)) (or (or ?v_103 ?v_89) ?v_92)) (or (or ?v_42 ?v_48) P11)) (or (or ?v_64 P10) ?v_71)) (or (or ?v_113 ?v_32) ?v_22)) (or (or ?v_124 P20) ?v_94)) (or (or P22 ?v_125) P16)) (or (or ?v_102 ?v_51) ?v_120)) (or (or ?v_126 ?v_127) ?v_46)) (or (or ?v_73 ?v_128) ?v_120)) (or (or ?v_77 P6) ?v_36)) (or (or P25 P16) P3)) (or (or ?v_32 ?v_52) ?v_17)) (or (or ?v_112 ?v_133) ?v_92)) (or (or ?v_129 ?v_99) ?v_118)) (or (or ?v_95 ?v_98) ?v_90)) (or (or P14 ?v_8) P23)) (or (or ?v_2 ?v_61) ?v_34)) (or (or ?v_13 ?v_44) ?v_81)) (or (or P1 ?v_25) ?v_100)) (or (or P14 ?v_77) ?v_130)) (or (or ?v_70 ?v_129) ?v_10)) (or (or ?v_131 ?v_11) ?v_34)) (or (or P22 ?v_145) P20)) (or (or ?v_17 ?v_61) ?v_98)) (or (or ?v_21 P29) ?v_89)) (or (or ?v_58 P16) P22)) (or (or ?v_54 ?v_30) ?v_87)) (or (or P6 ?v_70) ?v_107)) (or (or ?v_104 ?v_38) ?v_10)) (or (or ?v_141 ?v_64) ?v_132)) (or (or ?v_62 P10) ?v_101)) (or (or ?v_71 ?v_129) ?v_28)) (or (or ?v_125 ?v_37) ?v_3)) (or (or ?v_93 ?v_104) P21)) (or (or P5 ?v_17) ?v_110)) (or (or ?v_106 ?v_19) ?v_92)) (or (or P11 ?v_5) ?v_143)) (or (or P3 ?v_125) ?v_75)) (or (or ?v_87 ?v_61) ?v_92)) (or (or P8 ?v_41) ?v_86)) (or (or P22 ?v_11) P14)) (or (or P25 P14) ?v_63)) (or (or P16 ?v_53) P2)) (or (or ?v_94 P14) ?v_88)) (or (or ?v_27 ?v_146) ?v_130)) (or (or ?v_104 ?v_94) P0)) (or (or P28 ?v_108) ?v_109)) (or (or ?v_118 P6) ?v_46)) (or (or ?v_133 ?v_50) ?v_18)) (or (or P11 ?v_43) ?v_20)) (or (or ?v_130 ?v_12) ?v_11)) (or (or ?v_58 ?v_134) ?v_98)) (or (or ?v_30 ?v_96) ?v_102)) (or (or ?v_94 P7) ?v_25)) (or (or ?v_119 ?v_56) ?v_134)) (or (or ?v_106 ?v_97) ?v_66)) (or (or P20 ?v_110) ?v_87)) (or (or ?v_72 ?v_84) ?v_52)) (or (or P8 ?v_66) P13)) (or (or ?v_64 ?v_20) ?v_77)) (or (or ?v_87 P19) ?v_135)) (or (or ?v_34 ?v_119) ?v_121)) (or (or ?v_70 ?v_136) ?v_87)) (or (or ?v_32 ?v_82) ?v_10)) (or (or ?v_121 ?v_32) ?v_18)) (or (or ?v_129 P20) ?v_137)) (or (or ?v_40 P11) ?v_59)) (or (or ?v_129 ?v_47) ?v_72)) (or (or ?v_83 ?v_138) ?v_7)) (or (or ?v_144 P27) ?v_7)) (or (or ?v_138 ?v_58) ?v_54)) (or (or ?v_63 ?v_57) ?v_139)) (or (or ?v_140 ?v_64) ?v_18)) (or (or ?v_141 ?v_101) ?v_139)) (or (or ?v_149 ?v_33) ?v_135)) (or (or ?v_142 ?v_102) ?v_34)) (or (or ?v_142 ?v_65) ?v_81)) (or (or ?v_82 ?v_107) ?v_142)) (or (or ?v_18 ?v_87) ?v_23)) (or (or ?v_5 ?v_81) ?v_39)) (or (or ?v_143 P11) ?v_125)) (or (or ?v_132 ?v_142) ?v_10)) (or (or P9 ?v_102) ?v_140)) (or (or ?v_3 P20) ?v_144)) (or (or P5 ?v_47) P26)) (or (or ?v_66 ?v_96) ?v_21)) (or (or P0 ?v_102) ?v_29)) (or (or ?v_55 ?v_39) ?v_24)) (or (or ?v_65 ?v_98) ?v_111)) (or (or ?v_126 ?v_145) ?v_54)) (or (or ?v_118 ?v_136) P29)) (or (or ?v_113 P29) ?v_47)) (or (or ?v_136 ?v_146) ?v_128)) (or (or ?v_134 ?v_147) ?v_59)) (or (or ?v_81 ?v_40) ?v_107)) (or (or ?v_92 ?v_26) ?v_111)) (or (or ?v_70 ?v_33) ?v_44)) (or (or ?v_110 ?v_22) ?v_133)) (or (or ?v_60 ?v_62) ?v_30)) (or (or ?v_72 P17) ?v_128)) (or (or ?v_64 ?v_84) P15)) (or (or ?v_130 P13) ?v_106)) (or (or ?v_121 ?v_3) P17)) (or (or ?v_27 ?v_94) ?v_100)) (or (or ?v_25 P26) ?v_53)) (or (or ?v_72 ?v_61) ?v_121)) (or (or ?v_36 ?v_75) ?v_13)) (or (or ?v_40 ?v_121) ?v_53)) (or (or ?v_81 ?v_97) ?v_122)) (or (or P13 ?v_59) ?v_146)) (or (or P4 ?v_54) P5)) (or (or ?v_31 ?v_42) ?v_40)) (or (or ?v_124 ?v_13) P4)) (or (or P15 ?v_25) ?v_98)) (or (or ?v_70 ?v_126) ?v_28)) (or (or ?v_15 ?v_4) P5)) (or (or ?v_15 ?v_142) ?v_65)) (or (or ?v_77 P18) P23)) (or (or ?v_37 ?v_73) ?v_33)) (or (or P8 ?v_39) ?v_91)) (or (or ?v_65 ?v_2) ?v_144)) (or (or ?v_59 ?v_111) ?v_126)) (or (or ?v_26 ?v_104) ?v_66)) (or (or ?v_48 ?v_87) ?v_126)) (or ?v_148 ?v_89)) (or (or ?v_108 ?v_37) ?v_103)) (or (or ?v_132 P25) P13)) (or (or ?v_10 P3) ?v_27)) (or (or ?v_47 ?v_109) ?v_95)) (or (or ?v_135 ?v_123) ?v_88)) (or (or P1 ?v_116) ?v_104)) (or (or ?v_120 ?v_149) ?v_13)) (or (or ?v_94 ?v_62) ?v_23)) (or (or ?v_149 ?v_57) ?v_35)) (or (or ?v_54 ?v_27) ?v_11)) (or (or ?v_30 ?v_58) P1)) (or (or ?v_11 ?v_53) ?v_106)) (or (or P3 ?v_1) ?v_68)) (or (or P4 ?v_47) ?v_87)) (or (or ?v_109 ?v_32) ?v_131)) (or (or P26 ?v_7) ?v_47)) (or (or ?v_107 ?v_36) ?v_22)) (or (or P12 ?v_140) ?v_65)) (or (or ?v_110 ?v_26) ?v_115)) (or (or ?v_140 P24) ?v_45)) (or (or ?v_10 P18) ?v_19)) (or (or P10 ?v_93) P5)) (or (or ?v_7 P16) ?v_25)) (or (or ?v_11 ?v_86) ?v_82)) (or (or ?v_32 ?v_57) ?v_131)) (or (or ?v_126 P3) ?v_58)) (or (or ?v_67 ?v_134) ?v_85)) (or (or ?v_144 ?v_37) ?v_32)) (or (or ?v_4 P8) ?v_137)) (or (or ?v_125 ?v_80) ?v_74)) (or (or ?v_49 ?v_85) ?v_139)) (or (or ?v_47 P11) ?v_43)) (or (or ?v_16 ?v_58) ?v_107)) (or (or ?v_151 ?v_134) ?v_80)) (or (or P6 ?v_116) ?v_104)) (or (or ?v_38 ?v_13) ?v_5)) (or (or ?v_43 ?v_72) ?v_26)) (or (or ?v_143 ?v_25) ?v_20)) (or (or ?v_107 ?v_98) ?v_118)) (or (or ?v_134 ?v_82) ?v_122)) (or (or P13 ?v_143) ?v_125)) (or (or ?v_150 ?v_68) ?v_37)) (or (or ?v_97 ?v_30) ?v_11)) (or (or ?v_85 ?v_98) P7)) (or (or ?v_145 ?v_146) ?v_72)) (or (or ?v_102 ?v_71) P5)) (or (or ?v_15 P9) P26)) (or (or ?v_105 P25) ?v_51)) (or (or ?v_45 ?v_62) ?v_74)) (or (or ?v_70 ?v_23) ?v_8)) (or (or ?v_65 ?v_99) ?v_121)) (or (or ?v_143 ?v_81) ?v_108)) (or (or ?v_143 ?v_48) P1)) (or (or ?v_131 ?v_3) ?v_69)) (or (or ?v_129 ?v_92) ?v_53)) (or (or ?v_117 ?v_87) ?v_115)) (or (or ?v_125 ?v_60) ?v_139)) (or (or ?v_73 ?v_45) ?v_46)) (or (or ?v_129 ?v_53) ?v_103)) (or (or P12 P3) ?v_22)) (or (or ?v_142 ?v_25) P2)) (or (or ?v_59 ?v_8) ?v_151)) (or (or ?v_29 ?v_19) ?v_43)) (or (or ?v_85 ?v_86) ?v_68)) (or (or ?v_83 ?v_151) P21)) (or (or ?v_126 ?v_149) ?v_139)) (or (or ?v_1 ?v_142) ?v_133)) (or (or P19 ?v_141) ?v_44)) (or (or P16 ?v_40) ?v_7)) (or (or ?v_92 ?v_137) ?v_121)) (or (or ?v_131 ?v_49) ?v_69)) (or (or ?v_6 ?v_19) ?v_23)) (or (or ?v_138 ?v_23) ?v_44)) (or (or P28 ?v_97) ?v_26)) (or (or ?v_48 ?v_145) ?v_130)) (or (or ?v_37 ?v_12) ?v_88)) (or (or ?v_23 ?v_51) ?v_94)) (or (or ?v_76 P16) ?v_115)) (or (or ?v_11 ?v_145) ?v_63)) (or (or P4 ?v_133) ?v_86)) (or (or P6 ?v_134) ?v_44)) (or (or ?v_33 ?v_43) ?v_71)) (or (or ?v_48 ?v_113) P9)) (or (or P6 P23) P7)) (or (or ?v_20 ?v_146) ?v_44)) (or (or P10 ?v_122) ?v_30)) (or (or ?v_136 ?v_128) ?v_113)) (or (or ?v_77 P10) ?v_139)) (or (or ?v_40 ?v_53) (not P0))) (or (or ?v_69 ?v_149) ?v_57)) (or (or ?v_74 P22) ?v_76)) (or (or ?v_64 ?v_145) ?v_146)) (or (or ?v_10 ?v_108) ?v_52)) (or (or ?v_132 ?v_96) ?v_77)) (or (or ?v_94 ?v_27) ?v_139)) (or (or P12 ?v_17) ?v_99)) (or (or P8 ?v_120) ?v_87)) (or (or ?v_100 ?v_87) ?v_152)) (or (or ?v_77 ?v_29) ?v_142)) (or (or ?v_137 P11) ?v_119)) (or (or ?v_71 ?v_32) ?v_121)) (or (or ?v_114 ?v_8) ?v_90)) (or (or ?v_127 ?v_96) ?v_71)) (or (or ?v_151 ?v_86) ?v_109)) (or (or ?v_66 ?v_58) ?v_38)) (or (or ?v_93 ?v_11) ?v_132)) (or (or ?v_124 ?v_52) ?v_17)) (or (or P2 ?v_97) ?v_32)) (or (or ?v_73 ?v_68) P7)) (or (or ?v_71 ?v_92) ?v_74)) (or (or ?v_46 ?v_146) ?v_132)) (or (or ?v_136 ?v_50) ?v_126)) (or (or ?v_76 ?v_144) ?v_110)) (or (or ?v_76 ?v_47) ?v_64)) (or (or ?v_118 ?v_112) ?v_130)) (or (or ?v_144 ?v_39) ?v_102)) (or (or ?v_52 ?v_78) ?v_131)) (or (or ?v_89 ?v_100) ?v_136)) (or (or ?v_59 ?v_68) ?v_38)) (or (or ?v_124 ?v_2) P7)) (or (or P4 P7) ?v_115)) (or (or ?v_90 P6) ?v_104)) (or (or ?v_103 ?v_142) ?v_60)) (or (or ?v_54 ?v_138) ?v_124)) (or (or ?v_139 ?v_107) ?v_23)) (or (or ?v_135 ?v_91) P0)) (or (or ?v_23 ?v_90) ?v_19)) (or (or P18 ?v_13) P11)) (or (or ?v_128 ?v_120) ?v_89)) (or (or ?v_73 ?v_142) P29)) (or (or ?v_85 ?v_50) ?v_3)) (or (or ?v_71 ?v_3) ?v_144)) (or (or P29 ?v_42) ?v_144)) (or (or ?v_92 ?v_103) ?v_54)) (or (or ?v_26 ?v_54) P15)) (or (or ?v_54 ?v_112) P26)) (or (or ?v_45 ?v_111) ?v_28)) (or (or ?v_24 ?v_139) ?v_13)) (or (or ?v_100 ?v_49) P5)) (or (or P24 ?v_99) ?v_151)) (or (or ?v_3 ?v_35) ?v_123)) (or (or ?v_118 ?v_73) ?v_62)) (or (or ?v_56 ?v_80) ?v_30)) (or (or ?v_130 ?v_17) ?v_59)) (or (or ?v_107 ?v_91) P26)) (or ?v_153 ?v_133)) (or (or ?v_85 ?v_94) ?v_97)) (or (or P28 ?v_63) ?v_130))))))))))))))))))))))))))))
(check-sat)
(exit)
